data;


param FN:= 3;
param D:= 100;
param U_Original:=
         1         1        3.762355e-01
         2         1        1.170235e+00
         3         1       -7.666232e-01
         4         1        5.096127e-01
         5         1        1.165598e+00
         6         1       -4.385335e-01
         7         1       -6.417250e-01
         8         1        1.757733e-01
         9         1        1.724148e-01
        10         1        3.439800e-01
        11         1        3.397569e-01
        12         1        4.888925e-01
        13         1       -9.964379e-01
        14         1        5.981034e-01
        15         1        1.192104e-01
        16         1        5.493146e-01
        17         1        3.513045e-01
        18         1        5.233408e-01
        19         1       -2.045228e-02
        20         1        5.820422e-01
        21         1        2.438923e-02
        22         1        8.765218e-01
        23         1        1.745989e+00
        24         1       -6.756887e-01
        25         1       -7.785609e-01
        26         1        8.270346e-01
        27         1       -4.113215e-02
        28         1       -6.202065e-01
        29         1        8.558592e-01
        30         1       -1.167471e-01
        31         1        1.400708e+00
        32         1        5.033527e-01
        33         1        2.328990e+00
        34         1        8.672341e-01
        35         1        1.004403e-01
        36         1        1.440034e+00
        37         1        5.217457e-01
        38         1       -1.935525e+00
        39         1       -2.549344e-01
        40         1       -1.624347e-01
        41         1       -1.064834e-01
        42         1       -1.519801e+00
        43         1       -1.588383e+00
        44         1        3.256286e-01
        45         1       -5.877337e-01
        46         1        1.708347e+00
        47         1       -1.068563e+00
        48         1       -3.768164e-02
        49         1       -6.579017e-01
        50         1       -2.951638e-01
        51         1        1.214484e+00
        52         1       -2.392138e+00
        53         1        5.962237e-01
        54         1       -1.546280e+00
        55         1        5.021316e-01
        56         1        1.416429e+00
        57         1        1.709527e+00
        58         1       -1.959633e+00
        59         1        1.852417e+00
        60         1        1.237867e+00
        61         1        1.715827e-01
        62         1       -7.717458e-03
        63         1        8.630799e-01
        64         1        1.942147e+00
        65         1        3.044267e-02
        66         1        2.426459e-01
        67         1        1.105357e+00
        68         1       -2.044199e-01
        69         1       -1.178420e+00
        70         1       -1.580858e-01
        71         1       -7.928812e-01
        72         1       -1.943466e+00
        73         1       -7.847953e-01
        74         1        2.464585e-01
        75         1        9.007305e-01
        76         1       -3.085971e-01
        77         1        6.031193e-01
        78         1       -5.213135e-01
        79         1       -7.901271e-01
        80         1        1.046184e+00
        81         1       -1.361218e+00
        82         1        1.509575e+00
        83         1       -1.217794e+00
        84         1       -2.670581e-01
        85         1       -7.082745e-01
        86         1        3.023823e+00
        87         1       -1.353847e+00
        88         1        6.288624e-01
        89         1       -2.309695e-01
        90         1        4.821923e-01
        91         1        5.464080e-01
        92         1       -1.933135e+00
        93         1       -7.339674e-01
        94         1       -1.160616e+00
        95         1       -8.023908e-01
        96         1       -5.365551e-01
        97         1        3.024977e-02
        98         1        5.804707e-01
        99         1       -6.217099e-01
       100         1       -3.406493e-01
         1         2       -9.835404e-01
         2         2        1.515622e-01
         3         2        1.209824e+00
         4         2       -3.134322e-01
         5         2        9.489346e-01
         6         2        1.722754e+00
         7         2       -8.513542e-01
         8         2       -1.124487e+00
         9         2       -7.551538e-01
        10         2        1.247426e+00
        11         2        1.067183e+00
        12         2       -2.158091e+00
        13         2       -7.215121e-01
        14         2       -6.396309e-01
        15         2       -1.299889e-01
        16         2        2.904958e-01
        17         2        1.747485e+00
        18         2       -4.287692e-01
        19         2        6.746503e-01
        20         2       -4.920387e-01
        21         2       -5.580637e-01
        22         2       -1.130254e+00
        23         2        2.010062e+00
        24         2       -4.176254e-01
        25         2        1.559240e+00
        26         2        8.510309e-01
        27         2        6.277689e-01
        28         2       -9.754715e-01
        29         2       -1.556282e+00
        30         2       -5.610130e-02
        31         2       -8.273526e-01
        32         2        3.846936e-01
        33         2        1.297615e+00
        34         2        3.006238e-01
        35         2        6.721768e-01
        36         2       -7.302294e-01
        37         2        9.945831e-01
        38         2        9.327746e-01
        39         2        4.025481e-01
        40         2       -8.534764e-01
        41         2       -2.151916e+00
        42         2        7.724297e-01
        43         2       -3.229645e-03
        44         2        1.591124e+00
        45         2       -2.098191e-01
        46         2        3.682968e-01
        47         2       -7.747178e-01
        48         2       -3.934610e-01
        49         2        2.166477e-01
        50         2        3.871833e-01
        51         2        5.196248e-02
        52         2        9.231909e-01
        53         2        2.623298e+00
        54         2       -3.860384e-01
        55         2        9.347376e-01
        56         2        2.412706e+00
        57         2       -5.065570e-01
        58         2        5.488128e-01
        59         2        7.673958e-01
        60         2        7.949200e-01
        61         2       -8.144731e-01
        62         2       -1.257546e+00
        63         2       -9.905309e-01
        64         2       -3.128875e-01
        65         2        7.677654e-01
        66         2       -6.713720e-03
        67         2       -6.360740e-01
        68         2       -3.589734e-01
        69         2       -1.003055e-02
        70         2        5.951512e-01
        71         2        1.789288e+00
        72         2       -1.876570e+00
        73         2        4.956907e-01
        74         2        1.922982e-01
        75         2       -1.416454e+00
        76         2       -1.197645e+00
        77         2        5.681630e-01
        78         2        9.324849e-01
        79         2        3.007384e-01
        80         2       -2.266985e-01
        81         2       -2.309840e+00
        82         2       -1.118407e+00
        83         2        1.244205e+00
        84         2       -1.362725e-01
        85         2        7.065900e-01
        86         2        3.665495e-01
        87         2       -2.147614e+00
        88         2       -1.413864e+00
        89         2       -2.461928e-02
        90         2       -3.691367e-01
        91         2        6.144737e-01
        92         2        1.558892e+00
        93         2       -4.509755e-01
        94         2        1.384710e+00
        95         2        1.779340e+00
        96         2       -1.205915e+00
        97         2       -1.232804e+00
        98         2        9.872174e-01
        99         2       -1.432485e+00
       100         2        2.568805e-01
         1         3       -8.617998e-01
         2         3        3.154079e-01
         3         3        1.154253e-01
         4         3        1.692585e+00
         5         3       -1.492435e+00
         6         3        2.708649e+00
         7         3       -9.807939e-01
         8         3       -2.674239e-01
         9         3       -1.139544e-01
        10         3        2.335822e-01
        11         3        1.161217e+00
        12         3       -1.125111e+00
        13         3       -4.400378e-01
        14         3       -6.050984e-03
        15         3        4.719617e-01
        16         3        1.912558e-01
        17         3       -5.134293e-01
        18         3        1.354895e-01
        19         3        5.810356e-01
        20         3        2.154282e-01
        21         3       -3.795199e-01
        22         3        1.418652e+00
        23         3        1.066819e+00
        24         3       -1.902803e+00
        25         3       -5.185038e-01
        26         3       -6.354020e-01
        27         3       -5.791813e-01
        28         3        4.207962e-01
        29         3       -1.424494e+00
        30         3        5.872250e-01
        31         3        4.205797e-01
        32         3       -9.487593e-01
        33         3        6.562735e-01
        34         3       -6.732374e-01
        35         3        6.583335e-01
        36         3        4.946676e-02
        37         3        7.584628e-01
        38         3        1.050750e+00
        39         3        8.035555e-01
        40         3       -2.901310e-01
        41         3        2.870491e-01
        42         3        1.105809e+00
        43         3       -1.321565e+00
        44         3        9.457660e-01
        45         3        1.359434e+00
        46         3        1.472362e+00
        47         3        6.346940e-01
        48         3       -6.683180e-01
        49         3       -2.464636e+00
        50         3       -1.158374e+00
        51         3        4.741193e-01
        52         3       -2.002506e-01
        53         3        4.963227e-01
        54         3        1.985383e-01
        55         3        9.484924e-01
        56         3        1.126397e-01
        57         3        6.595808e-02
        58         3       -8.097893e-02
        59         3       -2.072125e+00
        60         3        2.442209e-01
        61         3       -1.082418e-01
        62         3       -5.973421e-01
        63         3       -1.590085e-01
        64         3       -1.615016e+00
        65         3        7.491082e-03
        66         3       -9.531445e-01
        67         3       -2.631839e-01
        68         3        2.032102e+00
        69         3        3.563345e-01
        70         3       -5.247634e-01
        71         3        2.449945e-01
        72         3        1.076527e-01
        73         3        2.647443e-01
        74         3        8.332511e-01
        75         3        3.983313e-01
        76         3        4.150813e-01
        77         3        2.624390e+00
        78         3       -4.826699e-01
        79         3       -9.825807e-03
        80         3        2.514982e-01
        81         3        1.520985e+00
        82         3       -2.230258e-01
        83         3       -1.553102e+00
        84         3       -1.067152e+00
        85         3       -3.994767e-01
        86         3        1.344049e+00
        87         3       -9.823354e-01
        88         3        5.016578e-01
        89         3        1.561431e+00
        90         3       -1.257786e+00
        91         3        4.335531e-01
        92         3       -4.070651e-01
        93         3       -1.021833e+00
        94         3        4.688042e-01
        95         3       -2.113669e+00
        96         3        7.706359e-01
        97         3       -9.730156e-01
        98         3       -1.481696e+00
        99         3        1.028049e+00
       100         3        9.190082e-01
         1         4       -1.479142e+00
         2         4        8.933775e-01
         3         4        3.091238e-01
         4         4        1.917844e-01
         5         4        1.305718e-01
         6         4        1.130738e+00
         7         4       -1.355751e+00
         8         4        1.950232e-01
         9         4       -6.048898e-01
        10         4        1.020402e+00
        11         4       -2.462744e-01
        12         4        1.739095e-01
        13         4        2.789849e-01
        14         4       -1.466347e+00
        15         4       -9.619691e-01
        16         4       -1.675080e+00
        17         4       -4.710845e-01
        18         4       -1.648915e+00
        19         4       -8.934609e-01
        20         4       -5.173191e-01
        21         4        1.396233e-01
        22         4        5.513809e-01
        23         4        2.803325e-01
        24         4        1.085978e-02
        25         4        9.300486e-01
        26         4       -3.119481e-01
        27         4       -1.272940e+00
        28         4       -1.103705e+00
        29         4        9.829891e-02
        30         4       -2.346004e-01
        31         4       -6.127106e-01
        32         4       -6.248270e-02
        33         4       -3.085834e-01
        34         4        1.943380e+00
        35         4        1.295804e+00
        36         4        8.961742e-01
        37         4        5.262520e-01
        38         4       -6.309940e-01
        39         4        1.142248e-01
        40         4       -1.892367e+00
        41         4        1.006267e+00
        42         4       -4.117352e-01
        43         4        2.001169e-01
        44         4        9.360351e-01
        45         4       -1.782405e+00
        46         4       -3.604469e-03
        47         4       -1.571853e+00
        48         4        3.235619e-01
        49         4       -4.910513e-01
        50         4       -1.051938e+00
        51         4        1.348025e+00
        52         4       -4.473392e-01
        53         4        1.760603e-01
        54         4       -9.072501e-01
        55         4        3.135296e-01
        56         4        1.241770e+00
        57         4        4.949185e-01
        58         4        4.948215e-02
        59         4        1.048324e+00
        60         4        1.115765e+00
        61         4        1.339917e+00
        62         4       -1.103057e+00
        63         4       -1.838913e+00
        64         4       -3.265128e-02
        65         4       -1.247386e+00
        66         4        6.801427e-01
        67         4       -8.741439e-01
        68         4       -6.294952e-01
        69         4        1.813763e-01
        70         4        9.868896e-01
        71         4       -6.829757e-01
        72         4       -3.155298e+00
        73         4       -7.167089e-01
        74         4       -1.058768e+00
        75         4       -2.410101e-01
        76         4        1.573946e+00
        77         4        1.473325e+00
        78         4       -4.338073e-03
        79         4        6.355787e-01
        80         4        1.490506e+00
        81         4       -3.280042e-01
        82         4        1.115710e+00
        83         4        1.019498e+00
        84         4       -2.426852e-01
        85         4       -1.242914e+00
        86         4       -7.700100e-01
        87         4        7.627402e-01
        88         4        2.347855e+00
        89         4       -1.069950e+00
        90         4       -6.168621e-01
        91         4       -6.968316e-01
        92         4        1.789269e+00
        93         4        4.040608e-01
        94         4        8.714703e-02
        95         4       -1.150728e+00
        96         4        2.771976e-01
        97         4       -8.417246e-01
        98         4        1.411268e+00
        99         4       -4.974511e-01
       100         4        4.191341e-02
         1         5       -3.263571e-01
         2         5       -5.735580e-01
         3         5        2.116440e-02
         4         5       -3.128196e-01
         5         5       -3.457762e-01
         6         5        6.254062e-01
         7         5       -5.034029e-01
         8         5       -7.203319e-01
         9         5       -1.141618e+00
        10         5       -1.999927e-01
        11         5       -2.264245e+00
        12         5        3.859733e-01
        13         5        5.423555e-02
        14         5       -1.321896e+00
        15         5       -6.087760e-01
        16         5        1.119317e+00
        17         5        4.668147e-01
        18         5       -1.302547e+00
        19         5        1.823592e+00
        20         5        2.337850e-01
        21         5       -1.125326e+00
        22         5       -7.261066e-01
        23         5        4.161910e-01
        24         5        1.455229e+00
        25         5        1.309413e-01
        26         5        2.086455e+00
        27         5       -8.895857e-01
        28         5        2.477709e-01
        29         5       -9.818964e-01
        30         5       -5.025463e-01
        31         5       -6.480582e-01
        32         5        1.451298e+00
        33         5       -6.390261e-02
        34         5       -7.471969e-01
        35         5       -2.903247e-01
        36         5        2.680674e-03
        37         5       -6.436208e-01
        38         5       -6.220762e-01
        39         5        1.560608e-01
        40         5        1.350182e+00
        41         5       -1.111398e+00
        42         5       -5.224945e-01
        43         5       -1.513725e-01
        44         5       -7.809913e-01
        45         5        3.851981e-01
        46         5       -1.051781e+00
        47         5        7.908381e-01
        48         5        6.065699e-01
        49         5       -6.191126e-02
        50         5        1.333413e+00
        51         5        4.773221e-01
        52         5       -1.136278e+00
        53         5        5.184176e-01
        54         5       -1.204187e+00
        55         5        1.249000e+00
        56         5        1.932223e-02
        57         5       -1.162277e+00
        58         5       -1.746724e+00
        59         5        9.174372e-01
        60         5        4.327970e-01
        61         5       -6.591311e-01
        62         5       -1.176480e+00
        63         5       -1.059915e+00
        64         5       -7.621405e-01
        65         5        1.241406e+00
        66         5       -9.473269e-02
        67         5       -8.483037e-01
        68         5        3.399788e-01
        69         5        5.278909e-01
        70         5        5.630683e-01
        71         5        1.630703e+00
        72         5        1.390865e-01
        73         5       -6.449283e-02
        74         5        6.446856e-01
        75         5       -2.692168e-01
        76         5        1.894606e-01
        77         5       -6.272662e-01
        78         5       -6.522453e-01
        79         5       -6.479287e-01
        80         5       -5.018652e-01
        81         5        1.232596e-01
        82         5       -7.393459e-01
        83         5        1.245019e+00
        84         5       -3.005815e-01
        85         5       -7.682268e-01
        86         5       -1.555380e+00
        87         5       -8.826345e-01
        88         5        1.569146e+00
        89         5        1.503338e+00
        90         5        4.084544e-01
        91         5       -1.827827e-01
        92         5       -2.003889e+00
        93         5        9.367457e-02
        94         5       -4.927594e-01
        95         5       -2.113881e-01
        96         5       -4.790565e-01
        97         5       -2.801241e-01
        98         5        2.748594e-01
        99         5        4.529522e-01
       100         5        1.669656e+00
;
param X_Original:=
    1        8.330059e-01
    2       -1.072851e+00
    3       -1.534368e+00
    4       -1.550856e+00
    5        2.857601e-02
    6        1.038509e+00
    7        2.439364e-01
    8        5.055473e-01
    9        4.241707e-01
   10        7.756580e-01
   11        4.196193e-01
   12       -2.459510e-01
   13        9.708355e-01
   14        1.248047e-01
   15       -1.723000e+00
   16        1.068445e+00
   17       -1.045000e+00
   18        4.341547e-01
   19        4.307624e-01
   20        8.283435e-01
   21       -1.090558e+00
   22       -1.063924e+00
   23        1.445645e+00
   24        1.348807e+00
   25       -3.065731e+00
   26       -3.875344e-01
   27        7.127860e-02
   28       -1.768413e+00
   29       -1.453771e-01
   30        4.587918e-01
   31        1.143113e+00
   32       -1.554061e-01
   33       -9.036154e-01
   34        1.893266e+00
   35        9.558152e-01
   36       -4.992456e-01
   37        1.553171e+00
   38       -2.079690e+00
   39        1.574360e+00
   40       -4.756805e-01
   41        1.295022e+00
   42        1.416635e-01
   43       -1.262406e+00
   44        3.500104e-01
   45       -3.336575e-01
   46        1.542213e+00
   47       -1.255877e+00
   48        8.451642e-01
   49       -1.887756e-01
   50       -1.242400e+00
   51       -1.036640e+00
   52        6.921156e-01
   53       -1.959735e+00
   54        9.399686e-01
   55       -1.259849e+00
   56       -1.491901e+00
   57       -1.248670e+00
   58       -3.150455e+00
   59       -2.513925e+00
   60        8.304901e-01
   61        1.419738e+00
   62       -1.150138e+00
   63        7.564151e-01
   64        3.486972e-01
   65        1.096699e+00
   66        2.359644e-01
   67        5.942650e-01
   68        8.103730e-01
   69        2.924385e-01
   70       -2.050055e-01
   71        3.337400e-01
   72       -1.997100e+00
   73        1.989718e-01
   74       -1.574404e+00
   75       -9.111948e-01
   76       -1.781555e+00
   77        1.473790e+00
   78       -1.192715e+00
   79        1.158806e+00
   80       -7.108366e-01
   81       -5.990985e-01
   82        2.351033e+00
   83        1.576263e+00
   84       -8.783365e-01
   85        7.276945e-03
   86        4.870276e-01
   87        1.669311e+00
   88        7.746262e-01
   89       -2.131541e-01
   90        1.977056e+00
   91       -2.224522e+00
   92        8.737391e-02
   93        2.042057e+00
   94       -2.864880e+00
   95        7.451478e-01
   96       -3.625706e-01
   97        3.128253e-01
   98       -5.499024e-01
   99       -2.605883e-01
  100       -7.644430e-01
;
param outliervec_original :=
    1    1
    2    1
    3    1
    4    0
    5    1
    6    1
    7    1
    8    1
    9    1
   10    1
   11    1
   12    1
   13    1
   14    1
   15    0
   16    1
   17    1
   18    1
   19    1
   20    1
   21    1
   22    1
   23    1
   24    1
   25    1
   26    1
   27    1
   28    1
   29    1
   30    1
   31    1
   32    1
   33    1
   34    0
   35    1
   36    1
   37    1
   38    1
   39    1
   40    1
   41    0
   42    1
   43    1
   44    1
   45    1
   46    1
   47    1
   48    1
   49    1
   50    1
   51    1
   52    1
   53    0
   54    1
   55    1
   56    1
   57    1
   58    0
   59    1
   60    1
   61    0
   62    1
   63    1
   64    1
   65    1
   66    1
   67    1
   68    1
   69    1
   70    1
   71    1
   72    0
   73    1
   74    1
   75    1
   76    1
   77    1
   78    0
   79    1
   80    1
   81    1
   82    0
   83    1
   84    1
   85    1
   86    1
   87    1
   88    1
   89    1
   90    0
   91    1
   92    1
   93    1
   94    0
   95    1
   96    0
   97    1
   98    1
   99    0
  100    1
;
param d:= 57;
param r:=5;
param p:=0.860000;
param M:=1000;
param U:=
         1         1        3.762355e-01
         2         1       -7.666232e-01
         3         1        1.165598e+00
         4         1       -6.417250e-01
         5         1        1.757733e-01
         6         1        1.724148e-01
         7         1        3.439800e-01
         8         1        3.397569e-01
         9         1        5.981034e-01
        10         1        3.513045e-01
        11         1        5.233408e-01
        12         1        5.820422e-01
        13         1        1.745989e+00
        14         1       -7.785609e-01
        15         1        8.270346e-01
        16         1       -4.113215e-02
        17         1       -6.202065e-01
        18         1       -1.167471e-01
        19         1        1.400708e+00
        20         1        5.033527e-01
        21         1        8.672341e-01
        22         1        1.004403e-01
        23         1        5.217457e-01
        24         1       -1.935525e+00
        25         1       -1.624347e-01
        26         1       -1.064834e-01
        27         1       -1.588383e+00
        28         1        3.256286e-01
        29         1       -5.877337e-01
        30         1        1.708347e+00
        31         1       -1.068563e+00
        32         1       -3.768164e-02
        33         1       -6.579017e-01
        34         1       -2.951638e-01
        35         1        5.962237e-01
        36         1       -1.959633e+00
        37         1        1.237867e+00
        38         1        1.715827e-01
        39         1        8.630799e-01
        40         1        2.426459e-01
        41         1        1.105357e+00
        42         1       -2.044199e-01
        43         1       -1.580858e-01
        44         1       -1.943466e+00
        45         1        6.031193e-01
        46         1       -5.213135e-01
        47         1       -1.361218e+00
        48         1        1.509575e+00
        49         1       -2.670581e-01
        50         1        6.288624e-01
        51         1       -2.309695e-01
        52         1       -1.160616e+00
        53         1       -5.365551e-01
        54         1        3.024977e-02
        55         1        5.804707e-01
        56         1       -6.217099e-01
        57         1       -3.406493e-01
         1         2       -9.835404e-01
         2         2        1.209824e+00
         3         2        9.489346e-01
         4         2       -8.513542e-01
         5         2       -1.124487e+00
         6         2       -7.551538e-01
         7         2        1.247426e+00
         8         2        1.067183e+00
         9         2       -6.396309e-01
        10         2        1.747485e+00
        11         2       -4.287692e-01
        12         2       -4.920387e-01
        13         2        2.010062e+00
        14         2        1.559240e+00
        15         2        8.510309e-01
        16         2        6.277689e-01
        17         2       -9.754715e-01
        18         2       -5.610130e-02
        19         2       -8.273526e-01
        20         2        3.846936e-01
        21         2        3.006238e-01
        22         2        6.721768e-01
        23         2        9.945831e-01
        24         2        9.327746e-01
        25         2       -8.534764e-01
        26         2       -2.151916e+00
        27         2       -3.229645e-03
        28         2        1.591124e+00
        29         2       -2.098191e-01
        30         2        3.682968e-01
        31         2       -7.747178e-01
        32         2       -3.934610e-01
        33         2        2.166477e-01
        34         2        3.871833e-01
        35         2        2.623298e+00
        36         2        5.488128e-01
        37         2        7.949200e-01
        38         2       -8.144731e-01
        39         2       -9.905309e-01
        40         2       -6.713720e-03
        41         2       -6.360740e-01
        42         2       -3.589734e-01
        43         2        5.951512e-01
        44         2       -1.876570e+00
        45         2        5.681630e-01
        46         2        9.324849e-01
        47         2       -2.309840e+00
        48         2       -1.118407e+00
        49         2       -1.362725e-01
        50         2       -1.413864e+00
        51         2       -2.461928e-02
        52         2        1.384710e+00
        53         2       -1.205915e+00
        54         2       -1.232804e+00
        55         2        9.872174e-01
        56         2       -1.432485e+00
        57         2        2.568805e-01
         1         3       -8.617998e-01
         2         3        1.154253e-01
         3         3       -1.492435e+00
         4         3       -9.807939e-01
         5         3       -2.674239e-01
         6         3       -1.139544e-01
         7         3        2.335822e-01
         8         3        1.161217e+00
         9         3       -6.050984e-03
        10         3       -5.134293e-01
        11         3        1.354895e-01
        12         3        2.154282e-01
        13         3        1.066819e+00
        14         3       -5.185038e-01
        15         3       -6.354020e-01
        16         3       -5.791813e-01
        17         3        4.207962e-01
        18         3        5.872250e-01
        19         3        4.205797e-01
        20         3       -9.487593e-01
        21         3       -6.732374e-01
        22         3        6.583335e-01
        23         3        7.584628e-01
        24         3        1.050750e+00
        25         3       -2.901310e-01
        26         3        2.870491e-01
        27         3       -1.321565e+00
        28         3        9.457660e-01
        29         3        1.359434e+00
        30         3        1.472362e+00
        31         3        6.346940e-01
        32         3       -6.683180e-01
        33         3       -2.464636e+00
        34         3       -1.158374e+00
        35         3        4.963227e-01
        36         3       -8.097893e-02
        37         3        2.442209e-01
        38         3       -1.082418e-01
        39         3       -1.590085e-01
        40         3       -9.531445e-01
        41         3       -2.631839e-01
        42         3        2.032102e+00
        43         3       -5.247634e-01
        44         3        1.076527e-01
        45         3        2.624390e+00
        46         3       -4.826699e-01
        47         3        1.520985e+00
        48         3       -2.230258e-01
        49         3       -1.067152e+00
        50         3        5.016578e-01
        51         3        1.561431e+00
        52         3        4.688042e-01
        53         3        7.706359e-01
        54         3       -9.730156e-01
        55         3       -1.481696e+00
        56         3        1.028049e+00
        57         3        9.190082e-01
         1         4       -1.479142e+00
         2         4        3.091238e-01
         3         4        1.305718e-01
         4         4       -1.355751e+00
         5         4        1.950232e-01
         6         4       -6.048898e-01
         7         4        1.020402e+00
         8         4       -2.462744e-01
         9         4       -1.466347e+00
        10         4       -4.710845e-01
        11         4       -1.648915e+00
        12         4       -5.173191e-01
        13         4        2.803325e-01
        14         4        9.300486e-01
        15         4       -3.119481e-01
        16         4       -1.272940e+00
        17         4       -1.103705e+00
        18         4       -2.346004e-01
        19         4       -6.127106e-01
        20         4       -6.248270e-02
        21         4        1.943380e+00
        22         4        1.295804e+00
        23         4        5.262520e-01
        24         4       -6.309940e-01
        25         4       -1.892367e+00
        26         4        1.006267e+00
        27         4        2.001169e-01
        28         4        9.360351e-01
        29         4       -1.782405e+00
        30         4       -3.604469e-03
        31         4       -1.571853e+00
        32         4        3.235619e-01
        33         4       -4.910513e-01
        34         4       -1.051938e+00
        35         4        1.760603e-01
        36         4        4.948215e-02
        37         4        1.115765e+00
        38         4        1.339917e+00
        39         4       -1.838913e+00
        40         4        6.801427e-01
        41         4       -8.741439e-01
        42         4       -6.294952e-01
        43         4        9.868896e-01
        44         4       -3.155298e+00
        45         4        1.473325e+00
        46         4       -4.338073e-03
        47         4       -3.280042e-01
        48         4        1.115710e+00
        49         4       -2.426852e-01
        50         4        2.347855e+00
        51         4       -1.069950e+00
        52         4        8.714703e-02
        53         4        2.771976e-01
        54         4       -8.417246e-01
        55         4        1.411268e+00
        56         4       -4.974511e-01
        57         4        4.191341e-02
         1         5       -3.263571e-01
         2         5        2.116440e-02
         3         5       -3.457762e-01
         4         5       -5.034029e-01
         5         5       -7.203319e-01
         6         5       -1.141618e+00
         7         5       -1.999927e-01
         8         5       -2.264245e+00
         9         5       -1.321896e+00
        10         5        4.668147e-01
        11         5       -1.302547e+00
        12         5        2.337850e-01
        13         5        4.161910e-01
        14         5        1.309413e-01
        15         5        2.086455e+00
        16         5       -8.895857e-01
        17         5        2.477709e-01
        18         5       -5.025463e-01
        19         5       -6.480582e-01
        20         5        1.451298e+00
        21         5       -7.471969e-01
        22         5       -2.903247e-01
        23         5       -6.436208e-01
        24         5       -6.220762e-01
        25         5        1.350182e+00
        26         5       -1.111398e+00
        27         5       -1.513725e-01
        28         5       -7.809913e-01
        29         5        3.851981e-01
        30         5       -1.051781e+00
        31         5        7.908381e-01
        32         5        6.065699e-01
        33         5       -6.191126e-02
        34         5        1.333413e+00
        35         5        5.184176e-01
        36         5       -1.746724e+00
        37         5        4.327970e-01
        38         5       -6.591311e-01
        39         5       -1.059915e+00
        40         5       -9.473269e-02
        41         5       -8.483037e-01
        42         5        3.399788e-01
        43         5        5.630683e-01
        44         5        1.390865e-01
        45         5       -6.272662e-01
        46         5       -6.522453e-01
        47         5        1.232596e-01
        48         5       -7.393459e-01
        49         5       -3.005815e-01
        50         5        1.569146e+00
        51         5        1.503338e+00
        52         5       -4.927594e-01
        53         5       -4.790565e-01
        54         5       -2.801241e-01
        55         5        2.748594e-01
        56         5        4.529522e-01
        57         5        1.669656e+00
;

param theta:=
    1        5.835109e-01
    2       -8.979253e-01
    3       -1.175724e+00
    4        8.089575e-01
    5        9.440877e-01
;
param X_true:=
    1        6.127421e-01
    2       -1.399524e+00
    3        1.361738e+00
    4       -2.746873e-02
    5        9.030612e-01
    6       -6.544425e-01
    7       -5.570502e-01
    8       -4.462753e+00
    9       -1.503236e+00
   10       -6.989024e-01
   11       -2.033335e+00
   12        3.308623e-01
   13       -1.420646e+00
   14       -3.688013e-01
   15        2.184408e+00
   16       -1.776122e+00
   17       -6.403930e-01
   18       -1.370128e+00
   19       -4.312325e-02
   20        2.386158e+00
   21        1.893266e+00
   22       -5.445519e-01
   23       -1.662024e+00
   24       -4.299294e+00
   25        7.574370e-01
   26        1.295022e+00
   27        6.475009e-01
   28       -2.331965e+00
   29       -2.831808e+00
   30       -2.061179e+00
   31       -1.198302e+00
   32        1.948934e+00
   33        1.863802e+00
   34        1.250394e+00
   35       -1.959735e+00
   36       -3.150455e+00
   37        1.031774e+00
   38        1.419738e+00
   39       -9.093944e-01
   40        1.727514e+00
   41        1.605763e-02
   42       -2.375586e+00
   43        1.318008e+00
   44       -1.997100e+00
   45       -2.643665e+00
   46       -1.192715e+00
   47       -6.580453e-01
   48        2.351033e+00
   49        7.395313e-01
   50        4.428040e+00
   51       -1.393643e+00
   52       -2.864880e+00
   53       -3.625706e-01
   54        1.322867e+00
   55        2.596061e+00
   56       -2.605883e-01
   57        1.020329e-01
;
param X:=
    1        8.330059e-01
    2       -1.534368e+00
    3        2.857601e-02
    4        2.439364e-01
    5        5.055473e-01
    6        4.241707e-01
    7        7.756580e-01
    8        4.196193e-01
    9        1.248047e-01
   10       -1.045000e+00
   11        4.341547e-01
   12        8.283435e-01
   13        1.445645e+00
   14       -3.065731e+00
   15       -3.875344e-01
   16        7.127860e-02
   17       -1.768413e+00
   18        4.587918e-01
   19        1.143113e+00
   20       -1.554061e-01
   21        1.893266e+00
   22        9.558152e-01
   23        1.553171e+00
   24       -2.079690e+00
   25       -4.756805e-01
   26        1.295022e+00
   27       -1.262406e+00
   28        3.500104e-01
   29       -3.336575e-01
   30        1.542213e+00
   31       -1.255877e+00
   32        8.451642e-01
   33       -1.887756e-01
   34       -1.242400e+00
   35       -1.959735e+00
   36       -3.150455e+00
   37        8.304901e-01
   38        1.419738e+00
   39        7.564151e-01
   40        2.359644e-01
   41        5.942650e-01
   42        8.103730e-01
   43       -2.050055e-01
   44       -1.997100e+00
   45        1.473790e+00
   46       -1.192715e+00
   47       -5.990985e-01
   48        2.351033e+00
   49       -8.783365e-01
   50        7.746262e-01
   51       -2.131541e-01
   52       -2.864880e+00
   53       -3.625706e-01
   54        3.128253e-01
   55       -5.499024e-01
   56       -2.605883e-01
   57       -7.644430e-01
;
param outliervec:=
    1    1
    2    1
    3    1
    4    1
    5    1
    6    1
    7    1
    8    1
    9    1
   10    1
   11    1
   12    1
   13    1
   14    1
   15    1
   16    1
   17    1
   18    1
   19    1
   20    1
   21    0
   22    1
   23    1
   24    1
   25    1
   26    0
   27    1
   28    1
   29    1
   30    1
   31    1
   32    1
   33    1
   34    1
   35    0
   36    0
   37    1
   38    0
   39    1
   40    1
   41    1
   42    1
   43    1
   44    0
   45    1
   46    0
   47    1
   48    0
   49    1
   50    1
   51    1
   52    0
   53    0
   54    1
   55    1
   56    0
   57    1
; 
param greedy_time :=         3.013747e-01
;